
******************************************************************************
This program contains Ipopt, a library for large-scale nonlinear optimization.
 Ipopt is released as open source code under the Eclipse Public License (EPL).
         For more information visit http://projects.coin-or.org/Ipopt
******************************************************************************

This is Ipopt version 3.12.6, running with linear solver ma57.

Number of nonzeros in equality constraint Jacobian...:        0
Number of nonzeros in inequality constraint Jacobian.:        0
Number of nonzeros in Lagrangian Hessian.............:   358243

Total number of variables............................:    37311
                     variables with only lower bounds:    11087
                variables with lower and upper bounds:        0
                     variables with only upper bounds:        0
Total number of equality constraints.................:        0
Total number of inequality constraints...............:        0
        inequality constraints with only lower bounds:        0
   inequality constraints with lower and upper bounds:        0
        inequality constraints with only upper bounds:        0

iter    objective    inf_pr   inf_du lg(mu)  ||d||  lg(rg) alpha_du alpha_pr  ls
   0  7.3624488e+05 0.00e+00 9.90e+01  -1.0 0.00e+00    -  0.00e+00 0.00e+00   0
   1  4.6252097e+03 0.00e+00 4.45e-02  -1.0 8.45e-01    -  9.57e-01 1.00e+00f  1
   2  3.7839046e+03 0.00e+00 9.60e-02  -1.7 1.94e+00    -  7.18e-01 1.00e+00f  1
   3  3.2932972e+03 0.00e+00 9.90e-02  -2.5 1.91e+00    -  6.53e-01 1.00e+00f  1
   4  3.9302628e+03 0.00e+00 5.10e-02  -2.5 1.15e+00    -  7.31e-01 1.00e+00f  1
   5  3.7693296e+03 0.00e+00 4.71e-02  -2.5 1.24e+01    -  2.23e-01 3.67e-01f  1
   6  3.2909196e+03 0.00e+00 4.25e-02  -2.5 5.68e+01    -  1.23e-01 1.53e-01f  1
   7  2.5280798e+03 0.00e+00 4.38e-02  -2.5 6.58e+02    -  2.40e-02 8.20e-02f  1
   8  1.0307138e+02 0.00e+00 5.47e-02  -2.5 1.90e+04    -  3.71e-03 7.71e-02f  1
   9 -1.8557992e+04 0.00e+00 9.59e-02  -2.5 3.68e+05    -  4.36e-03 5.43e-02f  1
iter    objective    inf_pr   inf_du lg(mu)  ||d||  lg(rg) alpha_du alpha_pr  ls
  10 -2.6354600e+04 0.00e+00 5.13e-02  -2.5 3.54e+05    -  5.61e-02 2.37e-02f  1
  11 -4.7059985e+04 0.00e+00 2.71e-01  -2.5 2.96e+05    -  3.57e-03 4.63e-02f  1
  12 -5.4152040e+04 0.00e+00 1.71e-01  -2.5 2.17e+05    -  1.53e-02 9.46e-03f  1
  13 -6.7182033e+04 0.00e+00 3.58e-01  -2.5 2.17e+05    -  1.20e-02 1.59e-02f  1
  14 -6.9231450e+04 0.00e+00 2.05e-01  -2.5 2.30e+05    -  2.02e-03 1.43e-03f  1
  15 -8.8450011e+04 0.00e+00 8.12e+00  -2.5 4.16e+05    -  3.73e-03 1.01e-02f  1
  16 -9.5015536e+04 0.00e+00 5.85e+00  -2.5 4.13e+05    -  4.22e-03 2.46e-03f  1
  17 -1.2021799e+05 0.00e+00 1.10e+01  -2.5 4.15e+05    -  4.15e-03 8.24e-03f  1
  18 -1.5738196e+05 0.00e+00 1.59e+01  -2.5 4.15e+05    -  5.06e-03 9.00e-03f  1
  19 -1.8826138e+05 0.00e+00 1.57e+01  -2.5 4.15e+05    -  5.44e-03 5.38e-03f  1
iter    objective    inf_pr   inf_du lg(mu)  ||d||  lg(rg) alpha_du alpha_pr  ls
  20 -2.3965887e+05 0.00e+00 1.74e+01  -2.5 4.15e+05    -  4.92e-03 6.35e-03f  1
  21 -3.1771618e+05 0.00e+00 1.91e+01  -2.5 4.15e+05    -  5.10e-03 6.56e-03f  1
  22 -7.4065266e+05 0.00e+00 4.42e+01  -2.5 4.14e+05    -  5.14e-03 2.57e-02f  1
  23 -9.0364572e+05 0.00e+00 1.37e+01  -2.5 4.08e+05    -  3.39e-02 9.58e-03f  1
  24 -1.7242337e+06 0.00e+00 1.95e+01  -2.5 4.04e+05    -  4.48e-02 5.02e-02f  1
  25 -1.7461406e+06 0.00e+00 2.03e+01  -2.5 3.84e+05    -  6.47e-04 1.43e-03f  1
  26 -7.3476886e+06 0.00e+00 6.43e+02  -2.5 4.45e+05    -  4.33e-03 4.74e-01f  1
  27 -7.3612696e+06 0.00e+00 3.81e+02  -2.5 5.33e+05    -  1.49e-01 2.98e-03f  1
  28 -7.3606088e+06 0.00e+00 1.74e+02  -2.5 1.95e+01  -4.0 5.42e-01 1.00e+00f  1
  29 -7.3608000e+06 0.00e+00 1.62e-02  -2.5 1.39e+01  -3.6 1.00e+00 3.59e-01f  1
iter    objective    inf_pr   inf_du lg(mu)  ||d||  lg(rg) alpha_du alpha_pr  ls
  30 -7.3609496e+06 0.00e+00 3.09e-03  -2.5 4.63e+00  -4.1 7.60e-01 1.00e+00f  1
  31 -7.3657480e+06 0.00e+00 1.90e-03  -3.8 1.33e+01  -4.5 6.47e-01 6.24e-01f  1
  32 -7.3694160e+06 0.00e+00 9.28e-04  -3.8 3.96e+01  -5.0 5.82e-01 5.89e-01f  1
  33 -7.3839956e+06 0.00e+00 2.60e-02  -3.8 2.35e+05    -  3.36e-03 3.39e-03f  1
  34 -7.4451495e+06 0.00e+00 1.13e-01  -3.8 2.29e+05    -  1.46e-02 1.44e-02f  1
  35 -7.5141953e+06 0.00e+00 2.08e+00  -3.8 2.16e+05    -  1.35e-02 1.68e-02f  1
  36 -7.5145747e+06 0.00e+00 2.09e+00  -3.8 2.00e+05    -  6.97e-05 9.40e-05f  1
  37 -7.5145946e+06 0.00e+00 2.09e+00  -3.8 2.00e+05    -  2.84e-06 5.03e-06f  1
  38 -7.5145952e+06 0.00e+00 2.09e+00  -3.8 2.00e+05    -  2.12e-08 6.64e-08f  1
  39 -7.5176699e+06 0.00e+00 2.55e+00  -3.8 1.97e+05    -  5.29e-06 7.64e-04f  1
iter    objective    inf_pr   inf_du lg(mu)  ||d||  lg(rg) alpha_du alpha_pr  ls
  40 -7.5176836e+06 0.00e+00 1.73e+00  -3.8 2.11e+01  -2.8 3.22e-01 1.18e-02f  1
  41 -7.5188810e+06 0.00e+00 5.07e-02  -3.8 7.10e-01  -3.3 9.71e-01 1.00e+00f  1
  42 -7.5385932e+06 0.00e+00 1.36e-01  -3.8 2.05e+05    -  4.74e-03 4.88e-03f  1
  43 -7.5391850e+06 0.00e+00 2.08e-01  -3.8 2.01e+05    -  3.06e-05 1.47e-04f  1
  44 -7.5398079e+06 0.00e+00 2.85e-01  -3.8 2.01e+05    -  3.14e-05 1.55e-04f  1
  45 -7.5398151e+06 0.00e+00 2.86e-01  -3.8 2.01e+05    -  7.31e-08 1.79e-06f  1
  46 -7.5398149e+06 0.00e+00 2.86e-01  -3.8 2.07e+05    -  4.27e-10 1.50e-08f  2
  47 -7.5398149e+06 0.00e+00 2.86e-01  -3.8 1.27e+03  -2.8 7.35e-04 4.47e-07f  2
  48 -7.6115705e+06 0.00e+00 5.53e-02  -3.8 2.01e+05    -  1.84e-02 1.80e-02f  1
  49 -7.7497672e+06 0.00e+00 1.75e+00  -3.8 1.94e+05    -  3.35e-02 3.63e-02f  1
iter    objective    inf_pr   inf_du lg(mu)  ||d||  lg(rg) alpha_du alpha_pr  ls
  50 -8.0996984e+06 0.00e+00 3.81e+00  -3.8 1.87e+05    -  1.12e-01 1.03e-01f  1
  51 -8.8532599e+06 0.00e+00 8.49e+00  -3.8 1.67e+05    -  3.20e-01 3.08e-01f  1
  52 -8.8533026e+06 0.00e+00 4.52e+00  -3.8 1.24e+00  -3.3 4.68e-01 4.64e-01f  1
  53 -9.5444491e+06 0.00e+00 4.00e+01  -3.8 1.16e+05    -  8.77e-01 9.91e-01f  1
  54 -9.5444733e+06 0.00e+00 1.70e+01  -3.8 1.09e+03    -  6.02e-01 9.33e-01f  1
  55 -9.5444724e+06 0.00e+00 1.51e-09  -3.8 7.28e+01    -  1.00e+00 1.00e+00f  1
  56 -9.5449046e+06 0.00e+00 4.90e-03  -5.7 7.59e+00    -  6.36e-01 8.18e-01f  1
  57 -9.5449847e+06 0.00e+00 4.26e-03  -5.7 1.55e+00    -  1.00e+00 6.71e-01f  1
  58 -9.5450181e+06 0.00e+00 1.69e-03  -5.7 5.96e-01    -  1.00e+00 7.29e-01f  1
  59 -9.5450297e+06 0.00e+00 8.29e-10  -5.7 2.16e-01    -  1.00e+00 1.00e+00f  1
iter    objective    inf_pr   inf_du lg(mu)  ||d||  lg(rg) alpha_du alpha_pr  ls
  60 -9.5450366e+06 0.00e+00 9.03e-05  -8.6 1.20e-01    -  9.98e-01 8.75e-01f  1
  61 -9.5450378e+06 0.00e+00 5.86e-06  -8.6 2.51e-02    -  1.00e+00 9.45e-01f  1
  62 -9.5450381e+06 0.00e+00 2.31e-05  -8.6 5.49e-03    -  1.00e+00 3.12e-02f  6
  63 -9.5450381e+06 0.00e+00 2.97e-05  -8.6 5.63e-03    -  1.00e+00 1.56e-02f  7
  64 -9.5450381e+06 0.00e+00 3.30e-05  -8.6 6.10e-03    -  1.00e+00 7.45e-09f 28
  65 -9.5450381e+06 0.00e+00 3.49e-05  -8.6 6.32e-03    -  1.00e+00 3.73e-09f 29
  66 -9.5450381e+06 0.00e+00 3.60e-05  -8.6 6.31e-03    -  1.00e+00 4.66e-10f 32
  67 -9.5450381e+06 0.00e+00 3.66e-05  -8.6 6.32e-03    -  1.00e+00 1.16e-10f 34
  68 -9.5450381e+06 0.00e+00 3.71e-05  -8.6 6.34e-03    -  1.00e+00 7.28e-12f 38
  69 -9.5450381e+06 0.00e+00 3.74e-05  -8.6 6.36e-03    -  1.00e+00 3.64e-12f 39
iter    objective    inf_pr   inf_du lg(mu)  ||d||  lg(rg) alpha_du alpha_pr  ls
  70 -9.5450381e+06 0.00e+00 3.76e-05  -8.6 6.37e-03    -  1.00e+00 1.82e-12f 40
  71 -9.5450382e+06 0.00e+00 1.89e-05  -8.6 6.37e-03    -  1.00e+00 5.00e-01f  2
  72 -9.5450379e+06 0.00e+00 7.26e-10  -8.6 3.40e-03    -  1.00e+00 1.00e+00w  1

Number of Iterations....: 72

                                   (scaled)                 (unscaled)
Objective...............:  -2.3863191168981160e+04   -9.5450379430651348e+06
Dual infeasibility......:   7.2644976127154522e-10    2.9057264328002930e-07
Constraint violation....:   0.0000000000000000e+00    0.0000000000000000e+00
Complementarity.........:   2.7918342682208156e-09    1.1167058015088983e-06
Overall NLP error.......:   2.7918342682208156e-09    1.1167058015088983e-06


Number of objective function evaluations             = 368
Number of objective gradient evaluations             = 73
Number of equality constraint evaluations            = 0
Number of inequality constraint evaluations          = 0
Number of equality constraint Jacobian evaluations   = 0
Number of inequality constraint Jacobian evaluations = 0
Number of Lagrangian Hessian evaluations             = 72
Total CPU secs in IPOPT (w/o function evaluations)   =      6.973
Total CPU secs in NLP function evaluations           =      7.207

EXIT: Optimal Solution Found.

 ** SUBROUTINE CUTEST_csetup: Warning. The problem has no general constraints. 
 ** Other tools may be preferable ** 

************************ CUTEst statistics ************************


 Package used            :  IPOPT
 Problem                 :  WALL50    
 # variables             =           37311
 # constraints           =               0
 # objective functions   =        0.4420000E+03
 # objective gradients   =        0.7400000E+02
 # objective Hessians    =        0.7300000E+02
 # Hessian-vector prdct  =        0.0000000E+00
 # constraints functions =        0.0000000E+00
 # constraints gradients =        0.0000000E+00
 # constraints Hessians  =        0.0000000E+00
 Exit code               =               0
 Final f                 =  -0.9545038E+07
 Set up time             =            0.50 seconds
 Solve time              =           32.82 seconds


******************************************************************

System Time =      10.9540004730 s.
